Route #1: 1 51 9 66 10 62 88 
Route #2: 82 48 8 22 67 25 55 
Route #3: 68 72 99 45 83 18 
Route #4: 89 84 86 38 14 37 96 
Route #5: 31 32 30 69 
Route #6: 40 75 56 24 79 70 49 7 52 
Route #7: 93 41 74 73 54 77 76 28 
Route #8: 13 92 98 85 59 
Route #9: 53 58 2 57 15 43 42 100 61 6 
Route #10: 3 78 35 65 71 20 47 19 
Route #11: 94 95 5 60 63 90 27 
Route #12: 21 23 39 4 26 
Route #13: 12 80 29 34 81 33 50 
Route #14: 87 97 91 44 16 17 46 36 64 11 
cost 1555.6
